MLW04
Position Depot: Random
Horizon for Depot: Large
Position of customers: Mixt
Distribution of the demand: Small
Width of time windows: Wide
Distribution of the service: Small

VEHICLE 
NUMBER 	 CAPACITY 
 8 	 	 43 
 
CUSTOMER
CUST NO. 	 XCOORD.  	 YCOORD. 	 DEMAND 	 READY TIME 	 DUE DATE 	 SERVICE TIME 
 0 	 	 849 	 	 699 	 	 0 	 	 0 	 	 4941 	 	 0 
  1 	 	 951 	 	 927 	 	 10 	 	 767 	 	 1029 	 	 78 
  2 	 	 427 	 	 628 	 	 10 	 	 2975 	 	 3292 	 	 93 
  3 	 	 612 	 	 270 	 	 5 	 	 2690 	 	 2937 	 	 56 
  4 	 	 428 	 	 507 	 	 6 	 	 4166 	 	 4555 	 	 50 
  5 	 	 688 	 	 163 	 	 5 	 	 3525 	 	 3980 	 	 71 
  6 	 	 298 	 	 415 	 	 5 	 	 2661 	 	 3153 	 	 79 
  7 	 	 740 	 	 492 	 	 10 	 	 4446 	 	 4941 	 	 78 
  8 	 	 601 	 	 278 	 	 6 	 	 308 	 	 622 	 	 66 
  9 	 	 847 	 	 162 	 	 7 	 	 4549 	 	 4941 	 	 60 
  10 	 	 535 	 	 470 	 	 7 	 	 138 	 	 479 	 	 91 
  11 	 	 919 	 	 894 	 	 7 	 	 3051 	 	 3349 	 	 54 
  12 	 	 729 	 	 97 	 	 5 	 	 1781 	 	 2153 	 	 97 
  13 	 	 959 	 	 941 	 	 5 	 	 2108 	 	 2487 	 	 88 
  14 	 	 456 	 	 668 	 	 5 	 	 1838 	 	 2213 	 	 58 
  15 	 	 402 	 	 488 	 	 9 	 	 994 	 	 1278 	 	 96 
  16 	 	 612 	 	 489 	 	 9 	 	 2672 	 	 3138 	 	 55 
  17 	 	 727 	 	 338 	 	 6 	 	 4449 	 	 4928 	 	 98 
  18 	 	 650 	 	 261 	 	 6 	 	 362 	 	 676 	 	 75 
  19 	 	 662 	 	 27 	 	 6 	 	 1688 	 	 1905 	 	 87 
  20 	 	 433 	 	 712 	 	 5 	 	 161 	 	 642 	 	 86 
  21 	 	 753 	 	 498 	 	 7 	 	 91 	 	 507 	 	 53 
  22 	 	 720 	 	 383 	 	 5 	 	 1300 	 	 1570 	 	 87 
  23 	 	 269 	 	 396 	 	 5 	 	 959 	 	 1352 	 	 60 
  24 	 	 361 	 	 424 	 	 9 	 	 590 	 	 848 	 	 99 
  25 	 	 291 	 	 447 	 	 10 	 	 1479 	 	 1809 	 	 100 
  26 	 	 649 	 	 846 	 	 9 	 	 2013 	 	 2229 	 	 64 
  27 	 	 191 	 	 631 	 	 10 	 	 2901 	 	 3292 	 	 52 
  28 	 	 975 	 	 16 	 	 5 	 	 3914 	 	 4154 	 	 53 
  29 	 	 434 	 	 222 	 	 10 	 	 4539 	 	 4941 	 	 67 
  30 	 	 112 	 	 154 	 	 6 	 	 1987 	 	 2224 	 	 62 
  31 	 	 720 	 	 537 	 	 6 	 	 2797 	 	 3140 	 	 88 
  32 	 	 213 	 	 808 	 	 9 	 	 1492 	 	 1923 	 	 56 
  33 	 	 205 	 	 581 	 	 6 	 	 1046 	 	 1303 	 	 79 
  34 	 	 358 	 	 810 	 	 10 	 	 3128 	 	 3561 	 	 80 
  35 	 	 165 	 	 884 	 	 6 	 	 283 	 	 779 	 	 53 
  36 	 	 843 	 	 137 	 	 9 	 	 3776 	 	 4065 	 	 61 
  37 	 	 819 	 	 533 	 	 7 	 	 2225 	 	 2532 	 	 91 
  38 	 	 909 	 	 793 	 	 10 	 	 3337 	 	 3692 	 	 54 
  39 	 	 290 	 	 685 	 	 5 	 	 1566 	 	 1884 	 	 62 
  40 	 	 538 	 	 913 	 	 9 	 	 1683 	 	 1983 	 	 73 
  41 	 	 5 	 	 564 	 	 8 	 	 485 	 	 940 	 	 51 
  42 	 	 308 	 	 548 	 	 8 	 	 2853 	 	 3322 	 	 95 
  43 	 	 972 	 	 949 	 	 8 	 	 4451 	 	 4750 	 	 58 
  44 	 	 344 	 	 564 	 	 5 	 	 4163 	 	 4581 	 	 62 
  45 	 	 995 	 	 569 	 	 7 	 	 1598 	 	 1974 	 	 95 
  46 	 	 947 	 	 267 	 	 6 	 	 1665 	 	 1924 	 	 60 
  47 	 	 936 	 	 560 	 	 6 	 	 825 	 	 1100 	 	 61 
  48 	 	 82 	 	 994 	 	 9 	 	 1479 	 	 1927 	 	 58 
  49 	 	 386 	 	 895 	 	 5 	 	 1275 	 	 1773 	 	 94 
  50 	 	 646 	 	 520 	 	 9 	 	 4180 	 	 4601 	 	 52 
 